language ESSENCE' 1.0
letting lastdx=93
letting cage be [
[47,12,9,13,9,14,9,14,10,14,11],
[20,16,11,16,10,0,0, 0,0, 0,0],
[15,13,14,0,0, 0,0, 0,0, 0,0],
[2,5,14,0,0, 0,0, 0,0, 0,0],
[9,14,6,0,0, 0,0, 0,0, 0,0],
[30,11,1,11,2,10,2,10,1,0,0],
[13,3,11,0,0, 0,0, 0,0, 0,0],
[38,1,14,2,14,2,15,3,15,3,14],
[14,3,16,4,16,0,0, 0,0, 0,0],
[25,12,3,12,4,12,5,0,0, 0,0],
[9,12,14,0,0, 0,0, 0,0, 0,0],
[3,11,15,0,0, 0,0, 0,0, 0,0],
[10,14,13,0,0, 0,0, 0,0, 0,0],
[21,10,4,10,3,0,0, 0,0, 0,0],
[26,3,4,4,4,4,5,0,0, 0,0],
[12,9,13,9,12,0,0, 0,0, 0,0],
[21,14,7,15,7,16,7,0,0, 0,0],
[10,4,2,0,0, 0,0, 0,0, 0,0],
[21,8,2,9,2,0,0, 0,0, 0,0],
[39,2,2,2,1,3,1,3,2,0,0],
[14,4,1,0,0, 0,0, 0,0, 0,0],
[44,5,13,4,13,4,14,4,15,5,15],
[27,8,14,8,13,8,12,8,11,0,0],
[12,9,4,0,0, 0,0, 0,0, 0,0],
[4,6,10,0,0, 0,0, 0,0, 0,0],
[31,15,16,14,16,13,16,13,15,0,0],
[14,1,13,0,0, 0,0, 0,0, 0,0],
[32,5,16,6,16,6,15,6,14,7,14],
[28,11,13,11,14,10,14,10,13,0,0],
[1,12,15,0,0, 0,0, 0,0, 0,0],
[37,6,11,7,11,7,10,8,10,0,0],
[31,2,3,1,3,1,2,1,1,0,0],
[50,16,2,16,3,16,4,15,4,0,0],
[12,5,9,0,0, 0,0, 0,0, 0,0],
[40,7,16,8,16,9,16,10,16,0,0],
[25,4,9,4,10,3,10,0,0, 0,0],
[45,13,5,13,6,13,7,12,7,0,0],
[3,9,5,0,0, 0,0, 0,0, 0,0],
[3,14,8,0,0, 0,0, 0,0, 0,0],
[15,10,9,10,10,0,0, 0,0, 0,0],
[10,11,10,0,0, 0,0, 0,0, 0,0],
[38,15,11,15,10,15,9,15,8,0,0],
[7,10,11,0,0, 0,0, 0,0, 0,0],
[57,10,15,9,15,9,14,8,15,7,15],
[14,12,2,0,0, 0,0, 0,0, 0,0],
[27,14,2,13,2,13,3,13,4,0,0],
[16,10,8,10,7,0,0, 0,0, 0,0],
[23,14,14,15,14,16,14,0,0, 0,0],
[25,5,11,5,10,5,12,4,12,4,11],
[14,14,4,0,0, 0,0, 0,0, 0,0],
[1,9,11,0,0, 0,0, 0,0, 0,0],
[19,12,16,11,16,0,0, 0,0, 0,0],
[12,12,13,0,0, 0,0, 0,0, 0,0],
[16,1,15,0,0, 0,0, 0,0, 0,0],
[19,8,6,8,5,0,0, 0,0, 0,0],
[36,1,11,2,11,2,10,2,9,0,0],
[31,2,12,1,12,3,12,3,13,2,13],
[35,11,7,11,6,12,6,0,0, 0,0],
[26,11,9,11,8,12,8,13,8,0,0],
[19,15,15,14,15,0,0, 0,0, 0,0],
[14,16,16,16,15,0,0, 0,0, 0,0],
[20,5,4,6,4,0,0, 0,0, 0,0],
[17,1,5,1,4,0,0, 0,0, 0,0],
[10,13,1,12,1,0,0, 0,0, 0,0],
[15,15,5,14,5,0,0, 0,0, 0,0],
[6,9,8,0,0, 0,0, 0,0, 0,0],
[5,4,7,0,0, 0,0, 0,0, 0,0],
[14,5,7,6,7,0,0, 0,0, 0,0],
[15,7,1,0,0, 0,0, 0,0, 0,0],
[3,16,1,0,0, 0,0, 0,0, 0,0],
[38,4,3,3,3,5,3,5,2,0,0],
[58,4,8,5,8,3,8,3,9,0,0],
[3,4,6,0,0, 0,0, 0,0, 0,0],
[8,2,8,0,0, 0,0, 0,0, 0,0],
[12,1,9,1,8,1,10,0,0, 0,0],
[10,7,3,0,0, 0,0, 0,0, 0,0],
[16,6,1,5,1,0,0, 0,0, 0,0],
[31,3,5,3,6,3,7,2,7,0,0],
[65,11,12,10,12,12,12,12,11,11,11],
[37,5,6,5,5,6,5,0,0, 0,0],
[12,13,10,12,10,0,0, 0,0, 0,0],
[11,15,2,0,0, 0,0, 0,0, 0,0],
[25,1,16,2,16,0,0, 0,0, 0,0],
[16,6,2,6,3,7,2,0,0, 0,0],
[52,6,12,7,12,7,13,6,13,0,0],
[16,8,1,9,1,0,0, 0,0, 0,0],
[15,8,3,9,3,0,0, 0,0, 0,0],
[38,8,9,9,9,9,10,0,0, 0,0],
[35,10,5,10,6,11,5,11,4,11,3],
[16,14,1,15,1,0,0, 0,0, 0,0],
[13,14,3,15,3,0,0, 0,0, 0,0],
[20,15,6,16,6,16,5,0,0, 0,0],
[21,15,13,16,13,16,12,0,0, 0,0],
[18,16,8,16,9,0,0, 0,0, 0,0]
]
